(set-info :smt-lib-version 2.6)
(set-info :category "crafted")
(set-logic QF_FF)
(define-sort FF0 () (_ FiniteField 52435875175126190479447740508185965837690552500527637822603658699938581184513))
(declare-fun b () Bool)
(declare-fun e () Bool)
(declare-fun d () Bool)
(declare-fun a () Bool)
(declare-fun c () Bool)
(declare-fun f () Bool)
(declare-fun g () Bool)
(declare-fun j () Bool)
(declare-fun i () Bool)
(declare-fun h () Bool)
(declare-fun return_n0 () FF0)
(declare-fun mul_n15 () FF0)
(declare-fun mul_n19 () FF0)
(declare-fun mul_n17 () FF0)
(declare-fun mul_n18 () FF0)
(declare-fun i_n5 () FF0)
(declare-fun h_n7 () FF0)
(declare-fun g_n9 () FF0)
(declare-fun mul_n16 () FF0)
(declare-fun j_n3 () FF0)
(declare-fun e_n2 () FF0)
(declare-fun b_n8 () FF0)
(declare-fun mul_n14 () FF0)
(declare-fun mul_n13 () FF0)
(declare-fun d_n4 () FF0)
(declare-fun mul_n12 () FF0)
(declare-fun mul_n11 () FF0)
(declare-fun f_n1 () FF0)
(declare-fun a_n10 () FF0)
(declare-fun c_n6 () FF0)
(assert 
  (let ((let0 b))
  (let ((let1 e))
  (let ((let2 d))
  (let ((let3 a))
  (let ((let4 c))
  (let ((let5 (=> let4 let3)))
  (let ((let6 f))
  (let ((let7 (or let6 let5 let2 let1 let0)))
  (let ((let8 g))
  (let ((let9 j))
  (let ((let10 (or let1 let9 let8)))
  (let ((let11 i))
  (let ((let12 h))
  (let ((let13 (and let12 let11 let10 let7)))
  (let ((let14 return_n0))
  (let ((let15 (as ff1 FF0)))
  (let ((let16 (= let15 let14)))
  (let ((let17 (= let16 let13)))
  (let ((let18 (as ff0 FF0)))
  (let ((let19 (= let18 let14)))
  (let ((let20 (or let16 let19)))
  (let ((let21 (and let20 let17)))
  (let ((let22 (as ff52435875175126190479447740508185965837690552500527637822603658699938581184512 FF0)))
  (let ((let23 mul_n15))
  (let ((let24 (ff.mul let23 let22)))
  (let ((let25 (ff.add let24 let15)))
  (let ((let26 mul_n19))
  (let ((let27 (ff.mul let26 let25)))
  (let ((let28 (= let27 let14)))
  (let ((let29 mul_n17))
  (let ((let30 (ff.mul let29 let22)))
  (let ((let31 (ff.add let30 let15)))
  (let ((let32 mul_n18))
  (let ((let33 (ff.mul let32 let31)))
  (let ((let34 (= let33 let26)))
  (let ((let35 i_n5))
  (let ((let36 h_n7))
  (let ((let37 (ff.mul let36 let35)))
  (let ((let38 (= let37 let32)))
  (let ((let39 g_n9))
  (let ((let40 (ff.mul let39 let22)))
  (let ((let41 (ff.add let40 let15)))
  (let ((let42 mul_n16))
  (let ((let43 (ff.mul let42 let41)))
  (let ((let44 (= let43 let29)))
  (let ((let45 j_n3))
  (let ((let46 (ff.mul let45 let22)))
  (let ((let47 (ff.add let46 let15)))
  (let ((let48 e_n2))
  (let ((let49 (ff.mul let48 let22)))
  (let ((let50 (ff.add let49 let15)))
  (let ((let51 (ff.mul let50 let47)))
  (let ((let52 (= let51 let42)))
  (let ((let53 b_n8))
  (let ((let54 (ff.mul let53 let22)))
  (let ((let55 (ff.add let54 let15)))
  (let ((let56 mul_n14))
  (let ((let57 (ff.mul let56 let55)))
  (let ((let58 (= let57 let23)))
  (let ((let59 mul_n13))
  (let ((let60 (ff.mul let59 let50)))
  (let ((let61 (= let60 let56)))
  (let ((let62 d_n4))
  (let ((let63 (ff.mul let62 let22)))
  (let ((let64 (ff.add let63 let15)))
  (let ((let65 mul_n12))
  (let ((let66 (ff.mul let65 let64)))
  (let ((let67 (= let66 let59)))
  (let ((let68 mul_n11))
  (let ((let69 f_n1))
  (let ((let70 (ff.mul let69 let22)))
  (let ((let71 (ff.add let70 let15)))
  (let ((let72 (ff.mul let71 let68)))
  (let ((let73 (= let72 let65)))
  (let ((let74 a_n10))
  (let ((let75 (ff.mul let74 let22)))
  (let ((let76 (ff.add let75 let15)))
  (let ((let77 c_n6))
  (let ((let78 (ff.mul let77 let76)))
  (let ((let79 (= let78 let68)))
  (let ((let80 (and let79 let73 let67 let61 let58 let52 let44 let38 let34 let28)))
  (let ((let81 (ite let11 let15 let18)))
  (let ((let82 (= let35 let81)))
  (let ((let83 (ite let8 let15 let18)))
  (let ((let84 (= let39 let83)))
  (let ((let85 (ite let9 let15 let18)))
  (let ((let86 (= let45 let85)))
  (let ((let87 (ite let12 let15 let18)))
  (let ((let88 (= let36 let87)))
  (let ((let89 (ite let1 let15 let18)))
  (let ((let90 (= let48 let89)))
  (let ((let91 (ite let0 let15 let18)))
  (let ((let92 (= let53 let91)))
  (let ((let93 (ite let4 let15 let18)))
  (let ((let94 (= let77 let93)))
  (let ((let95 (ite let3 let15 let18)))
  (let ((let96 (= let74 let95)))
  (let ((let97 (ite let6 let15 let18)))
  (let ((let98 (= let69 let97)))
  (let ((let99 (ite let2 let15 let18)))
  (let ((let100 (= let62 let99)))
  (let ((let101 (and let100 let98 let96 let94 let92 let90 let88 let86 let84 let82)))
  (let ((let102 (and let101 let80)))
  (let ((let103 (=> let102 let21)))
  (let ((let104 (not let103)))
  let104
)))))))))))))))))))))))))))))))))))))))))))))))))))))))))))))))))))))))))))))))))))))))))))))))))))))))))
)
(check-sat)
